# Objective value = 3.0421163628141170e+02
x[0] 0
x[1] 1
x[2] 1
x[3] 0
x[4] 1
x[5] 0
x[6] 1
x[7] 0
x[8] 0
x[9] 1
x[10] 1
x[11] 0
x[12] 1
x[13] 1
x[14] 0
x[15] 0
x[16] 1
x[17] 0
x[18] 0
x[19] 1
x[20] 0
x[21] 0
x[22] 1
x[23] 1
x[24] 0
x[25] 1
x[26] 0
x[27] 0
x[28] 1
x[29] 1
x[30] 0
x[31] 0
x[32] 0
x[33] 0
x[34] 0
x[35] 1
x[36] 0
x[37] 0
x[38] 0
x[39] 1
x[40] 0
x[41] 1
x[42] 0
x[43] 1
x[44] 0
x[45] 1
x[46] 1
x[47] 1
x[48] 0
x[49] 1
x[50] 1
x[51] 0
x[52] 1
x[53] 0
x[54] 1
x[55] 0
x[56] 0
x[57] 1
x[58] 1
x[59] 0
x[60] 1
x[61] 0
x[62] 0
x[63] 0
x[64] 0
x[65] 0
x[66] 0
x[67] 1
x[68] 1
x[69] 1
x[70] 1
x[71] 0
x[72] 0
x[73] 0
x[74] 0
x[75] 0
x[76] 1
x[77] 1
x[78] 0
x[79] 0
x[80] 0
x[81] 0
x[82] 0
x[83] 0
x[84] 1
x[85] 0
x[86] 1
x[87] 0
x[88] 0
x[89] 1
x[90] 0
x[91] 0
x[92] 0
x[93] 0
x[94] 0
x[95] 0
x[96] 1
x[97] 1
x[98] 1
x[99] 0
x[100] 0
x[101] 1
x[102] 1
x[103] 1
x[104] 1
x[105] 0
x[106] 0
x[107] 0
x[108] 0
x[109] 1
x[110] 1
x[111] 0
x[112] 1
x[113] 1
x[114] 0
x[115] 0
x[116] 1
x[117] 0
x[118] 1
x[119] 1
x[120] 0
x[121] 1
x[122] 1
x[123] 1
x[124] 1
x[125] 1
x[126] 1
x[127] 0
x[128] 1
x[129] 0
x[130] 1
x[131] 0
x[132] 0
x[133] 1
x[134] 1
x[135] 0
x[136] 1
x[137] 0
x[138] 0
x[139] 0
x[140] 1
x[141] 0
x[142] 0
x[143] 0
x[144] 0
x[145] 1
x[146] 0
x[147] 0
x[148] 0
x[149] 0
x[150] 0
x[151] 0
x[152] 0
x[153] 0
x[154] 1
x[155] 0
x[156] 0
x[157] 0
x[158] 0
x[159] 0
x[160] 1
x[161] 1
x[162] 0
x[163] 1
x[164] 1
x[165] 1
x[166] 0
x[167] 0
x[168] 1
x[169] 0
x[170] 0
x[171] 0
x[172] 0
x[173] 1
x[174] 0
x[175] 0
x[176] 1
x[177] 0
x[178] 0
x[179] 1
x[180] 0
x[181] 0
x[182] 0
x[183] 0
x[184] 0
x[185] 1
x[186] 1
x[187] 1
x[188] 1
x[189] 0
x[190] 1
x[191] 0
x[192] 1
x[193] 0
x[194] 1
x[195] 0
x[196] 1
x[197] 1
x[198] 0
x[199] 1
x[200] 1
x[201] 0
x[202] 0
x[203] 0
x[204] 0
x[205] 0
x[206] 1
x[207] 0
x[208] 0
x[209] 1
x[210] 0
x[211] 0
x[212] 0
x[213] 1
x[214] 1
x[215] 1
x[216] 1
x[217] 0
x[218] 1
x[219] 0
x[220] 1
x[221] 0
x[222] 0
x[223] 0
x[224] 1
x[225] 0
x[226] 1
x[227] 0
x[228] 0
x[229] 1
x[230] 0
x[231] 0
x[232] 0
x[233] 0
x[234] 1
x[235] 0
x[236] 0
x[237] 0
x[238] 1
x[239] 0
x[240] 1
x[241] 1
x[242] 0
x[243] 0
x[244] 0
x[245] 0
x[246] 1
x[247] 0
x[248] 0
x[249] 0
x[250] 1
x[251] 1
x[252] 1
x[253] 1
x[254] 1
x[255] 0
x[256] 0
x[257] 0
x[258] 0
x[259] 1
x[260] 0
x[261] 0
x[262] 0
x[263] 1
x[264] 1
x[265] 0
x[266] 1
x[267] 1
x[268] 1
x[269] 0
x[270] 1
x[271] 0
x[272] 1
x[273] 0
x[274] 0
x[275] 0
x[276] 1
x[277] 1
x[278] 1
x[279] 0
x[280] 0
x[281] 0
x[282] 1
x[283] 0
x[284] 1
x[285] 0
x[286] 0
x[287] 1
x[288] 1
x[289] 1
x[290] 1
x[291] 0
x[292] 1
x[293] 0
x[294] 0
x[295] 0
x[296] 1
x[297] 0
x[298] 1
x[299] 1
x[300] 1
x[301] 0
x[302] 1
x[303] 1
x[304] 0
x[305] 0
x[306] 1
x[307] 0
x[308] 1
x[309] 1
x[310] 0
x[311] 1
x[312] 1
x[313] 0
x[314] 0
x[315] 1
x[316] 0
x[317] 0
x[318] 1
x[319] 1
x[320] 0
x[321] 0
x[322] 1
x[323] 0
x[324] 1
x[325] 0
x[326] 1
x[327] 0
x[328] 1
x[329] 0
x[330] 0
x[331] 1
x[332] 0
x[333] 0
x[334] 0
x[335] 1
x[336] 0
x[337] 0
x[338] 1
x[339] 0
x[340] 1
x[341] 1
x[342] 1
x[343] 1
x[344] 0
x[345] 0
x[346] 1
x[347] 0
x[348] 0
x[349] 0
x[350] 1
x[351] 0
x[352] 0
x[353] 0
x[354] 0
x[355] 0
x[356] 1
x[357] 0
x[358] 1
x[359] 1
x[360] 0
x[361] 1
x[362] 1
x[363] 0
x[364] 1
x[365] 0
x[366] 0
x[367] 0
x[368] 0
x[369] 0
x[370] 0
x[371] 0
x[372] 0
x[373] 0
x[374] 0
x[375] 1
x[376] 1
x[377] 1
x[378] 1
x[379] 1
x[380] 0
x[381] 1
x[382] 1
x[383] 0
x[384] 1
x[385] 1
x[386] 1
x[387] 1
x[388] 1
x[389] 1
x[390] 1
x[391] 1
x[392] 0
x[393] 1
x[394] 0
x[395] 0
x[396] 1
x[397] 0
x[398] 0
x[399] 0
x[400] 0
x[401] 1
x[402] 0
x[403] 0
x[404] 1
x[405] 1
x[406] 0
x[407] 0
x[408] 0
x[409] 1
x[410] 1
x[411] 0
x[412] 0
x[413] 0
x[414] 1
x[415] 1
x[416] 1
x[417] 0
x[418] 0
x[419] 1
x[420] 1
x[421] 1
x[422] 1
x[423] 1
x[424] 1
x[425] 0
x[426] 0
x[427] 1
x[428] 0
x[429] 1
x[430] 0
x[431] 0
x[432] 0
x[433] 0
x[434] 0
x[435] 0
x[436] 1
x[437] 1
x[438] 1
x[439] 1
x[440] 0
x[441] 1
x[442] 1
x[443] 1
x[444] 0
x[445] 1
x[446] 0
x[447] 1
x[448] 1
x[449] 1
x[450] 1
x[451] 1
x[452] 1
x[453] 0
x[454] 0
x[455] 0
x[456] 1
x[457] 0
x[458] 1
x[459] 0
x[460] 0
x[461] 0
x[462] 1
x[463] 0
x[464] 1
x[465] 0
x[466] 0
x[467] 1
x[468] 0
x[469] 1
x[470] 0
x[471] 1
x[472] 1
x[473] 0
x[474] 1
x[475] 0
x[476] 1
x[477] 0
x[478] 1
x[479] 0
x[480] 1
x[481] 1
x[482] 1
x[483] 0
x[484] 0
x[485] 0
x[486] 1
x[487] 1
x[488] 1
x[489] 0
x[490] 0
x[491] 0
x[492] 1
x[493] 1
x[494] 1
x[495] 1
x[496] 1
x[497] 0
x[498] 1
x[499] 1
x[500] 0
x[501] 0
x[502] 1
x[503] 1
x[504] 1
x[505] 1
x[506] 1
x[507] 1
x[508] 1
x[509] 1
x[510] 0
x[511] 0
x[512] 0
x[513] 1
x[514] 1
x[515] 0
x[516] 0
x[517] 1
x[518] 1
x[519] 1
x[520] 1
x[521] 0
x[522] 0
x[523] 0
x[524] 1
x[525] 0
x[526] 1
x[527] 0
x[528] 1
x[529] 1
x[530] 1
x[531] 0
x[532] 1
x[533] 0
x[534] 0
x[535] 0
x[536] 0
x[537] 1
x[538] 1
x[539] 0
x[540] 0
x[541] 1
x[542] 1
x[543] 0
x[544] 1
x[545] 0
x[546] 0
x[547] 1
x[548] 0
x[549] 0
x[550] 1
x[551] 1
x[552] 1
x[553] 1
x[554] 0
x[555] 1
x[556] 0
x[557] 1
x[558] 0
x[559] 1
x[560] 0
x[561] 1
x[562] 1
x[563] 0
x[564] 0
x[565] 0
x[566] 0
x[567] 0
x[568] 1
x[569] 0
x[570] 0
x[571] 1
x[572] 1
x[573] 1
x[574] 1
x[575] 0
x[576] 1
x[577] 1
x[578] 0
x[579] 0
x[580] 0
x[581] 1
x[582] 0
x[583] 1
x[584] 1
x[585] 0
x[586] 1
x[587] 0
x[588] 1
x[589] 1
x[590] 1
x[591] 0
x[592] 0
x[593] 0
x[594] 0
x[595] 0
x[596] 0
x[597] 0
x[598] 0
x[599] 0
x[600] 0
x[601] 1
x[602] 1
x[603] 0
x[604] 0
x[605] 0
x[606] 0
x[607] 0
x[608] 0
x[609] 1
x[610] 0
x[611] 1
x[612] 0
x[613] 0
x[614] 1
x[615] 1
x[616] 0
x[617] 0
x[618] 0
x[619] 0
x[620] 0
x[621] 1
x[622] 0
x[623] 0
x[624] 0
x[625] 1
x[626] 1
x[627] 0
x[628] 0
x[629] 0
x[630] 0
x[631] 1
x[632] 0
x[633] 1
x[634] 1
x[635] 1
x[636] 1
x[637] 0
x[638] 1
x[639] 0
x[640] 0
x[641] 1
x[642] 1
x[643] 0
x[644] 1
x[645] 0
x[646] 1
x[647] 1
x[648] 1
x[649] 0
x[650] 1
x[651] 0
x[652] 1
x[653] 0
x[654] 0
x[655] 1
x[656] 0
x[657] 0
x[658] 0
x[659] 0
x[660] 1
x[661] 1
x[662] 1
x[663] 0
x[664] 1
x[665] 0
x[666] 0
x[667] 1
x[668] 1
x[669] 0
x[670] 1
x[671] 0
x[672] 0
x[673] 1
x[674] 0
x[675] 1
x[676] 1
x[677] 1
x[678] 0
x[679] 1
x[680] 1
x[681] 1
x[682] 1
x[683] 0
x[684] 1
x[685] 1
x[686] 0
x[687] 1
x[688] 1
x[689] 0
x[690] 0
x[691] 0
x[692] 0
x[693] 0
x[694] 1
x[695] 0
x[696] 0
x[697] 1
x[698] 0
x[699] 1
x[700] 0
x[701] 1
x[702] 1
x[703] 1
x[704] 1
x[705] 1
x[706] 1
x[707] 1
x[708] 0
x[709] 1
x[710] 0
x[711] 1
x[712] 0
x[713] 0
x[714] 0
x[715] 1
x[716] 0
x[717] 0
x[718] 0
x[719] 1
x[720] 1
x[721] 1
x[722] 1
x[723] 1
x[724] 1
x[725] 0
x[726] 1
x[727] 0
x[728] 1
x[729] 1
x[730] 1
x[731] 0
x[732] 1
x[733] 0
x[734] 1
x[735] 0
x[736] 0
x[737] 1
x[738] 1
x[739] 0
x[740] 0
x[741] 0
x[742] 0
x[743] 0
x[744] 1
x[745] 0
x[746] 0
x[747] 1
x[748] 0
x[749] 1
x[750] 1
x[751] 0
x[752] 1
x[753] 0
x[754] 0
x[755] 1
x[756] 0
x[757] 0
x[758] 0
x[759] 1
x[760] 1
x[761] 1
x[762] 0
x[763] 0
x[764] 1
x[765] 1
x[766] 1
x[767] 1
x[768] 1
x[769] 0
x[770] 1
x[771] 0
x[772] 1
x[773] 0
x[774] 0
x[775] 1
x[776] 1
x[777] 0
x[778] 1
x[779] 0
x[780] 1
x[781] 1
x[782] 1
x[783] 0
x[784] 1
x[785] 0
x[786] 1
x[787] 1
x[788] 0
x[789] 0
x[790] 1
x[791] 1
x[792] 0
x[793] 0
x[794] 0
x[795] 0
x[796] 0
x[797] 0
x[798] 0
x[799] 1
x[800] 0
x[801] 0
x[802] 1
x[803] 0
x[804] 1
x[805] 1
x[806] 0
x[807] 0
x[808] 0
x[809] 0
x[810] 0
x[811] 0
x[812] 1
x[813] 0
x[814] 1
x[815] 0
x[816] 1
x[817] 0
x[818] 1
x[819] 0
x[820] 1
x[821] 1
x[822] 0
x[823] 0
x[824] 1
x[825] 0
x[826] 1
x[827] 0
x[828] 1
x[829] 1
x[830] 1
x[831] 1
x[832] 0
x[833] 1
x[834] 1
x[835] 0
x[836] 0
x[837] 0
x[838] 0
x[839] 1
x[840] 1
x[841] 0
x[842] 0
x[843] 1
x[844] 0
x[845] 1
x[846] 1
x[847] 1
x[848] 0
x[849] 0
x[850] 1
x[851] 1
x[852] 1
x[853] 1
x[854] 1
x[855] 0
x[856] 1
x[857] 0
x[858] 0
x[859] 0
x[860] 1
x[861] 1
x[862] 0
x[863] 0
x[864] 1
x[865] 1
x[866] 0
x[867] 0
x[868] 1
x[869] 1
x[870] 1
x[871] 1
x[872] 0
x[873] 0
x[874] 1
x[875] 0
x[876] 1
x[877] 1
x[878] 1
x[879] 1
x[880] 0
x[881] 1
x[882] 1
x[883] 0
x[884] 0
x[885] 1
x[886] 1
x[887] 0
x[888] 0
x[889] 1
x[890] 1
x[891] 1
x[892] 1
x[893] 1
x[894] 1
x[895] 1
x[896] 0
x[897] 1
x[898] 1
x[899] 0
x[900] 1
x[901] 0
x[902] 1
x[903] 1
x[904] 1
x[905] 1
x[906] 0
x[907] 1
x[908] 0
x[909] 0
x[910] 0
x[911] 0
x[912] 0
x[913] 0
x[914] 0
x[915] 0
x[916] 0
x[917] 0
x[918] 0
x[919] 1
x[920] 0
x[921] 0
x[922] 0
x[923] 1
x[924] 0
x[925] 1
x[926] 0
x[927] 0
x[928] 0
x[929] 0
x[930] 0
x[931] 0
x[932] 0
x[933] 0
x[934] 0
x[935] 1
x[936] 0
x[937] 0
x[938] 1
x[939] 1
x[940] 1
x[941] 1
x[942] 0
x[943] 0
x[944] 1
x[945] 0
x[946] 0
x[947] 1
x[948] 1
x[949] 1
x[950] 0
x[951] 1
x[952] 0
x[953] 1
x[954] 0
x[955] 1
x[956] 0
x[957] 1
x[958] 1
x[959] 1
x[960] 0
x[961] 1
x[962] 0
x[963] 1
x[964] 0
x[965] 1
x[966] 0
x[967] 0
x[968] 0
x[969] 1
x[970] 1
x[971] 1
x[972] 0
x[973] 1
x[974] 1
x[975] 0
x[976] 0
x[977] 1
x[978] 1
x[979] 0
x[980] 0
x[981] 1
x[982] 0
x[983] 1
x[984] 0
x[985] 1
x[986] 1
x[987] 1
x[988] 1
x[989] 1
x[990] 1
x[991] 0
x[992] 1
x[993] 0
x[994] 0
x[995] 0
x[996] 1
x[997] 0
x[998] 0
x[999] 1
